DIMENSION :11
NODE_COORD_SECTION
1 -8.146629226630566 17.059169135744483
2 71.28211547980504 -38.95468760869743
3 60.61482357593903 -9.689915560497028
4 -97.48256840519743 15.888829267902693
5 53.57157961706616 -20.525811985127945
6 -35.23237947715461 98.09950064451058
7 -96.92263168079307 80.17129863314801
8 -38.0323933336208 -37.700956608613524
9 -59.554840921955375 -23.4755870801375
10 -19.469063493519712 -75.49445745609509
11 83.54510603479457 -22.87156561914108
EOF
